language Essence 1.3

letting pos be
        function((1, 1) --> 1, (1, 2) --> 3, (2, 1) --> 4, (2, 2) --> 7, (3, 1) --> 8, (3, 2) --> 12, (4, 1) --> 9,
                 (4, 2) --> 14, (5, 1) --> 5, (5, 2) --> 11, (6, 1) --> 6, (6, 2) --> 13, (7, 1) --> 2, (7, 2) --> 10)
